
set I:= 2	3	4 5 6	7 	8	9	10	11 12 13	14	15 16	17	18	19	20 21 22 
23 24 25 26 27 28 29 30 31 32 33 34 35 36 37 38 39 40 41 42 43 44 45 46 47 48 49 50 51
52 53 54 55 56 57 58 59 60 61 62 63 64 65 66 67 68 69 70 71 72 73 74 75 76;

set Nodos:= 1 2	3	4 5 6	7 	8	9	10	11 12 13	14	15 16	17	18	19	20 21 22
23 24 25 26 27 28 29 30 31 32 33 34 35 36 37 38 39 40 41 42 43 44 45 46 47 48 49 50 51
52 53 54 55 56 57 58 59 60 61 62 63 64 65 66 67 68 69 70 71 72 73 74 75 76;

set K:= 1 2 3;
set R:= A B C;
set T:= A B C;


param: xcoord	ycoord :=
1	0	0
2	35	-56
3	72	-58
4	70	-66
5	45	-40
6	39	-40
7	60	-50
8	42	-59
9	31	-46
10	44	-58
11	45	-67
12	69	-46
13	24	0
14	12	-4
15	1	-21
16	3	29
17	19	-13
18	13	-14
19	25	11
20	24	23
21	3	7
22	23	19
23	2	-7
24	5	23
25	32	5
26	14	25
27	-16	-4
28	24	17
29	0	-7
30	-74	-22
31	-64	-24
32	-71	-19
33	-91	-15
34	-65	-14
35	-91	-26
36	-76	-7
37	-66	-4
38	-87	-10
39	-73	-8
40	-81	-1
41	-82	-24
42	-87	-25
43	-76	-25
44	-75	-6
45	-70	-3
46	-64	-22
47	-66	-5
48	-72	-10
49	-89	-3
50	-86	-3
51	-57	-9
52	-22	-36
53	-44	19
54	-21	6
55	-49	-4
56	-68	-7
57	-42	11
58	-69	3
59	-49	9
60	-68	-19
61	-57	-7
62	-61	-34
63	-36	16
64	-56	2
65	-67	0
66	-17	-14
67	-17	-20
68	-28	-26
69	-70	-21
70	-46	-14
71	-52	36
72	-33	62
73	-53	49
74	-39	59
75	33	73
76	38	88

;

param Q:=
1   25000
2   30000
3   35000
;

param P:=
A   10000
B   15000
C   20000
;


param alfa:=
A   1
B    .70
C    .30
;

param q:  A   B   C:=
1	0	0	0
2	250	0	0
3	0	250	0
4	0	0	850
5	1485	0	0
6	0	45	0
7	0	0	3150
8	895	0	0
9	0	895	0
10	0	0	1080
11	20	0	0
12	0	45	0
13	0	0	770
14	585	0	0
15	0	315	0
16	0	0	2180
17	4525	0	0
18	0	70	0
19	0	0	15
20	50	0	0
21	0	830	0
22	0	0	1055
23	40	0	0
24	0	125	0
25	0	0	695
26	1065	0	0
27	0	3790	0
28	0	0	2145
29	25	0	0
30	0	680	0
31	0	0	2505
32	465	0	0
33	0	105	0
34	0	0	845
35	110	0	0
36	0	15	0
37	0	0	1355
38	2165	0	0
39	0	15	0
40	0	0	5395
41	1165	0	0
42	0	55	0
43	0	0	50
44	390	0	0
45	0	315	0
46	0	0	20
47	295	0	0
48	0	40	0
49	0	0	170
50	1170	0	0
51	0	150	0
52	0	0	200
53	615	0	0
54	0	35	0
55	0	0	165
56	1845	0	0
57	0	55	0
58	0	0	115
59	1040	0	0
60	0	20	0
61	0	0	40
62	180	0	0
63	0	2520	0
64	0	0	80
65	2870	0	0
66	0	95	0
67	0	0	1175
68	2225	0	0
69	0	30	0
70	0	0	215
71	1050	0	0
72	0	1340	0
73	0	0	2050
74	620	0	0
75	0	55	0
76	0	0	5425

;

param a:  A   B   C:=
1	0	0	0
2	1	0	0
3	0	1	0
4	0	0	1
5	1	0	0
6	0	1	0
7	0	0	1
8	1	0	0
9	0	1	0
10	0	0	1
11	1	0	0
12	0	1	0
13	0	0	1
14	1	0	0
15	0	1	0
16	0	0	1
17	1	0	0
18	0	1	0
19	0	0	1
20	1	0	0
21	0	1	0
22	0	0	1
23	1	0	0
24	0	1	0
25	0	0	1
26	1	0	0
27	0	1	0
28	0	0	1
29	1	0	0
30	0	1	0
31	0	0	1
32	1	0	0
33	0	1	0
34	0	0	1
35	1	0	0
36	0	1	0
37	0	0	1
38	1	0	0
39	0	1	0
40	0	0	1
41	1	0	0
42	0	1	0
43	0	0	1
44	1	0	0
45	0	1	0
46	0	0	1
47	1	0	0
48	0	1	0
49	0	0	1
50	1	0	0
51	0	1	0
52	0	0	1
53	1	0	0
54	0	1	0
55	0	0	1
56	1	0	0
57	0	1	0
58	0	0	1
59	1	0	0
60	0	1	0
61	0	0	1
62	1	0	0
63	0	1	0
64	0	0	1
65	1	0	0
66	0	1	0
67	0	0	1
68	1	0	0
69	0	1	0
70	0	0	1
71	1	0	0
72	0	1	0
73	0	0	1
74	1	0	0
75	0	1	0
76	0	0	1

;

param qu :=
1	0
2	250
3	250
4	850
5	1485
6	45
7	3150
8	895
9	895
10	1080
11	20
12	45
13	770
14	585
15	315
16	2180
17	4525
18	70
19	15
20	50
21	830
22	1055
23	40
24	125
25	695
26	1065
27	3790
28	2145
29	25
30	680
31	2505
32	465
33	105
34	845
35	110
36	15
37	1355
38	2165
39	15
40	5395
41	1165
42	55
43	50
44	390
45	315
46	20
47	295
48	40
49	170
50	1170
51	150
52	200
53	615
54	35
55	165
56	1845
57	55
58	115
59	1040
60	20
61	40
62	180
63	2520
64	80
65	2870
66	95
67	1175
68	2225
69	30
70	215
71	1050
72	1340
73	2050
74	620
75	55
76	5425


;

set IT:=
(	2	,	A	)
(	3	,	B	)
(	4	,	C	)
(	5	,	A	)
(	6	,	B	)
(	7	,	C	)
(	8	,	A	)
(	9	,	B	)
(	10	,	C	)
(	11	,	A	)
(	12	,	B	)
(	13	,	C	)
(	14	,	A	)
(	15	,	B	)
(	16	,	C	)
(	17	,	A	)
(	18	,	B	)
(	19	,	C	)
(	20	,	A	)
(	21	,	B	)
(	22	,	C	)
(	23	,	A	)
(	24	,	B	)
(	25	,	C	)
(	26	,	A	)
(	27	,	B	)
(	28	,	C	)
(	29	,	A	)
(	30	,	B	)
(	31	,	C	)
(	32	,	A	)
(	33	,	B	)
(	34	,	C	)
(	35	,	A	)
(	36	,	B	)
(	37	,	C	)
(	38	,	A	)
(	39	,	B	)
(	40	,	C	)
(	41	,	A	)
(	42	,	B	)
(	43	,	C	)
(	44	,	A	)
(	45	,	B	)
(	46	,	C	)
(	47	,	A	)
(	48	,	B	)
(	49	,	C	)
(	50	,	A	)
(	51	,	B	)
(	52	,	C	)
(	53	,	A	)
(	54	,	B	)
(	55	,	C	)
(	56	,	A	)
(	57	,	B	)
(	58	,	C	)
(	59	,	A	)
(	60	,	B	)
(	61	,	C	)
(	62	,	A	)
(	63	,	B	)
(	64	,	C	)
(	65	,	A	)
(	66	,	B	)
(	67	,	C	)
(	68	,	A	)
(	69	,	B	)
(	70	,	C	)
(	71	,	A	)
(	72	,	B	)
(	73	,	C	)
(	74	,	A	)
(	75	,	B	)
(	76	,	C	)

;